
  22    4
  10   10   10   10

   0   0   0   0   0   6 2 3 4 5 6 7 
   5  10  10  10  10   8 21 20 19 18 16 13 9 8 
   5  10  10  10  10   5 21 19 17 15 12 
   2  10  10  10  10   5 20 18 17 14 11 
   8  10  10  10  10   4 18 17 11 10 
   2  10  10  10  10   6 19 18 17 16 15 14 
   3  10  10  10  10   4 17 16 15 14 
   5  10  10  10  10   3 17 15 14 
   2  10  10  10  10   3 17 15 14 
   2  10  10  10  10   3 16 15 14 
   8  10  10  10  10   2 16 15 
   4  10  10  10  10   2 16 14 
   1  10  10  10  10   2 15 14 
   7  10  10  10  10   1 22
   5  10  10  10  10   1 22
   4  10  10  10  10   1 22
   6  10  10  10  10   1 22
  10  10  10  10  10   1 22
   8  10  10  10  10   1 22
   7  10  10  10  10   1 22
   5  10  10  10  10   1 22
   0   0   0   0   0   0 
